Reading model...
...model read.
creating competitive generators file...
...competitive generators recorded.
Loading data...
.. real-time data read.
Compiling instance...
37.292204999999996
...instance created.
Creating Offer Mitigation (model will solve as dispatch if TRUE)...
...storage offer mitigation file created
Converting model to MPEC...
...converted
NOTE: initial MIP solve with only storage competitive to get feasible solution
Solving...

Welcome to IBM(R) ILOG(R) CPLEX(R) Interactive Optimizer 12.9.0.0
  with Simplex, Mixed Integer & Barrier Optimizers
5725-A06 5725-A29 5724-Y48 5724-Y49 5724-Y54 5724-Y55 5655-Y21
Copyright IBM Corp. 1988, 2019.  All Rights Reserved.

Type 'help' for a list of available commands.
Type 'help' followed by a command name for more
information on commands.

CPLEX> Logfile 'cplex.log' closed.
Logfile 'C:\Users\llavin\Desktop\test715\logs\tmpuark6yva.cplex.log' open.
CPLEX> New value for parallel optimization mode: -1
CPLEX> New value for mixed integer optimality gap tolerance: 0.01
CPLEX> New value for deterministic time limit in ticks: 30000
CPLEX> Problem 'C:\Users\llavin\Desktop\test715\logs\tmpi53zaunl.pyomo.lp' read.
Read time = 0.52 sec. (27.36 ticks)
CPLEX> Problem name         : C:\Users\llavin\Desktop\test715\logs\tmpi53zaunl.pyomo.lp
Objective sense      : Maximize
Variables            :  106816  [Nneg: 1,  Box: 43669,  Free: 8832,
                                 Binary: 54314]
Objective nonzeros   :   17507
Linear constraints   :  244875  [Less: 82143,  Greater: 117460,  Equal: 45272]
  Nonzeros           :  576919
  RHS nonzeros       :  133805

Variables            : Min LB: -5000.000        Max UB: 1000000.       
Objective nonzeros   : Min   : 0.008333333      Max   : 180.0000       
Linear constraints   :
  Nonzeros           : Min   : 0.008333333      Max   : 1000000.       
  RHS nonzeros       : Min   : 0.008333333      Max   : 1000000.       
CPLEX> CPXPARAM_Parallel                                -1
CPXPARAM_DetTimeLimit                            30000
CPXPARAM_MIP_Tolerances_MIPGap                   0.01
Tried aggregator 3 times.
MIP Presolve eliminated 177632 rows and 40569 columns.
MIP Presolve added 6226 rows and 0 columns.
MIP Presolve modified 48564 coefficients.
Aggregator did 25693 substitutions.
Reduced MIP has 47776 rows, 39056 columns, and 142508 nonzeros.
Reduced MIP has 15411 binaries, 0 generals, 0 SOSs, and 0 indicators.
Presolve time = 0.59 sec. (334.49 ticks)
Probing fixed 822 vars, tightened 9350 bounds.
Probing time = 0.39 sec. (14.89 ticks)
Tried aggregator 2 times.
MIP Presolve eliminated 1838 rows and 1645 columns.
MIP Presolve modified 5554 coefficients.
Aggregator did 48 substitutions.
Reduced MIP has 45890 rows, 37363 columns, and 137038 nonzeros.
Reduced MIP has 14589 binaries, 0 generals, 0 SOSs, and 0 indicators.
Presolve time = 0.22 sec. (144.64 ticks)
Probing fixed 0 vars, tightened 512 bounds.
Probing time = 0.66 sec. (25.46 ticks)
Clique table members: 105935.
MIP emphasis: balance optimality and feasibility.
MIP search method: dynamic search.
Parallel mode: opportunistic, using up to 32 threads.
Root relaxation solution time = 0.94 sec. (1726.00 ticks)

        Nodes                                         Cuts/
   Node  Left     Objective  IInf  Best Integer    Best Bound    ItCnt     Gap

      0     0        0.0000    49                      0.0000     9396         
*     0+    0                            0.0000        0.0000             0.00%
      0     0        cutoff              0.0000        0.0000     9396    0.00%
Elapsed time = 3.98 sec. (3310.75 ticks, tree = 0.01 MB, solutions = 1)

Root node processing (before b&c):
  Real time             =    4.01 sec. (3314.36 ticks)
Parallel b&c, 32 threads:
  Real time             =    0.00 sec. (0.00 ticks)
  Sync time (average)   =    0.00 sec.
  Wait time (average)   =    0.00 sec.
                          ------------
Total (root+branch&cut) =    4.01 sec. (3314.36 ticks)

Solution pool: 1 solution saved.

MIP - Integer optimal solution:  Objective =  3.3026026358e-10
Solution time =    4.05 sec.  Iterations = 9396  Nodes = 0
Deterministic time = 3314.66 ticks  (819.04 ticks/sec)

CPLEX> Incumbent solution written to file 'C:\Users\llavin\Desktop\test715\logs\tmp5w39fb3j.cplex.sol'.
CPLEX> NOTE: no warmstart specified for MIP iteration, default behavior is true
NOTE: resolving with all competitive generators using storage-only solution to warmstart
Solving...

Welcome to IBM(R) ILOG(R) CPLEX(R) Interactive Optimizer 12.9.0.0
  with Simplex, Mixed Integer & Barrier Optimizers
5725-A06 5725-A29 5724-Y48 5724-Y49 5724-Y54 5724-Y55 5655-Y21
Copyright IBM Corp. 1988, 2019.  All Rights Reserved.

Type 'help' for a list of available commands.
Type 'help' followed by a command name for more
information on commands.

CPLEX> Logfile 'cplex.log' closed.
Logfile 'C:\Users\llavin\Desktop\test715\logs\tmpa99mavbi.cplex.log' open.
CPLEX> New value for parallel optimization mode: -1
CPLEX> New value for mixed integer optimality gap tolerance: 0.01
CPLEX> New value for deterministic time limit in ticks: 30000
CPLEX> Problem 'C:\Users\llavin\Desktop\test715\logs\tmpfo_u6lql.pyomo.lp' read.
Read time = 0.52 sec. (27.41 ticks)
CPLEX> MIP start file 'C:\Users\llavin\Desktop\test715\logs\tmpatbwce4v.cplex.mst' read.
CPLEX> Problem name         : C:\Users\llavin\Desktop\test715\logs\tmpfo_u6lql.pyomo.lp
Objective sense      : Maximize
Variables            :  108256  [Nneg: 1,  Box: 45109,  Free: 8832,
                                 Binary: 54314]
Objective nonzeros   :   18899
Linear constraints   :  244875  [Less: 82143,  Greater: 117460,  Equal: 45272]
  Nonzeros           :  576919
  RHS nonzeros       :  133805

Variables            : Min LB: -5000.000        Max UB: 1000000.       
Objective nonzeros   : Min   : 0.008333333      Max   : 180.0000       
Linear constraints   :
  Nonzeros           : Min   : 0.008333333      Max   : 1000000.       
  RHS nonzeros       : Min   : 0.008333333      Max   : 1000000.       
CPLEX> CPXPARAM_Parallel                                -1
CPXPARAM_DetTimeLimit                            30000
CPXPARAM_MIP_Tolerances_MIPGap                   0.01
1 of 1 MIP starts provided solutions.
MIP start 'm1' defined initial solution with objective -0.0000.
Tried aggregator 3 times.
MIP Presolve eliminated 177632 rows and 42009 columns.
MIP Presolve added 6226 rows and 0 columns.
MIP Presolve modified 48564 coefficients.
Aggregator did 25693 substitutions.
Reduced MIP has 47776 rows, 39056 columns, and 142508 nonzeros.
Reduced MIP has 15411 binaries, 0 generals, 0 SOSs, and 0 indicators.
Presolve time = 0.59 sec. (335.21 ticks)
Probing fixed 822 vars, tightened 9350 bounds.
Probing time = 0.39 sec. (14.89 ticks)
Tried aggregator 2 times.
MIP Presolve eliminated 1838 rows and 1645 columns.
MIP Presolve modified 5554 coefficients.
Aggregator did 48 substitutions.
Reduced MIP has 45890 rows, 37363 columns, and 137038 nonzeros.
Reduced MIP has 14589 binaries, 0 generals, 0 SOSs, and 0 indicators.
Presolve time = 0.22 sec. (144.65 ticks)
Probing fixed 0 vars, tightened 462 bounds.
Probing time = 0.69 sec. (21.70 ticks)
Clique table members: 105935.
MIP emphasis: balance optimality and feasibility.
MIP search method: dynamic search.
Parallel mode: opportunistic, using up to 32 threads.
Root relaxation solution time = 1.30 sec. (2021.97 ticks)

        Nodes                                         Cuts/
   Node  Left     Objective  IInf  Best Integer    Best Bound    ItCnt     Gap

*     0+    0                           -0.0000   1.03852e+07              --- 
      0     0    20754.0223   523       -0.0000    20754.0223    13067     --- 
*     0+    0                            0.0001    20754.0223              --- 
      0     0    19289.4001   420        0.0001     Cuts: 437    13641     --- 
      0     0    19251.8300   454        0.0001     Cuts: 533    13880     --- 
      0     0    19249.9292   450        0.0001     Cuts: 444    14014     --- 
      0     0    19238.8215   439        0.0001     Cuts: 306    14095     --- 
      0     0    19233.2511   441        0.0001      Cuts: 41    14114     --- 
      0     0    19233.1849   438        0.0001      Cuts: 11    14125     --- 
      0     0    19233.1255   432        0.0001       Cuts: 5    14128     --- 
      0    17        cutoff              0.0001       Cuts: 5    16754     --- 
Elapsed time = 12.33 sec. (6492.05 ticks, tree = 0.02 MB, solutions = 2)
    148   147    17499.5472   387        0.0001    17734.4819    19074     --- 
    511    85    15351.8145   374        0.0001    17734.4819    18605     --- 
    858   397    13877.7195   335        0.0001    17734.4819    20603     --- 
   1193  1010    infeasible              0.0001    17734.4819    35187     --- 
   1495  1156    14345.4749   299        0.0001    17734.4819    41057     --- 
   1726  1402    12057.4598   295        0.0001    17734.4819    44717     --- 
   2035  1185    11705.0317   288        0.0001    17734.4819    41311     --- 
   2331  1815    13216.6278   326        0.0001    17734.4819    54695     --- 
   2611  1492     7025.4580   197        0.0001    17734.4819    47134     --- 
   3823  2825     7912.5339   166        0.0001    17734.4819    67287     --- 
Elapsed time = 33.00 sec. (9596.81 ticks, tree = 78.15 MB, solutions = 2)
   5029  4259        cutoff              0.0001    17734.4819    77816     --- 
   5907  4540     1033.1364    18        0.0001    17734.4819    80956     --- 
   5952  5197        cutoff              0.0001    17000.6803   105837     --- 
   5957  5196    16482.2179   498        0.0001    15309.1761   105661     --- 
   5959  3464    15901.7747   477        0.0001    15309.1761   105879     --- 
   5961  2310    15309.1761   462        0.0001    15309.1761   106191     --- 

Clique cuts applied:  2
Cover cuts applied:  2
Implied bound cuts applied:  7
Flow cuts applied:  696
Mixed integer rounding cuts applied:  203
Gomory fractional cuts applied:  35

Root node processing (before b&c):
  Real time             =    9.00 sec. (6449.71 ticks)
Parallel b&c, 32 threads:
  Real time             =   59.42 sec. (23572.53 ticks)
  Sync time (average)   =    5.92 sec.
  Wait time (average)   =    0.33 sec.
                          ------------
Total (root+branch&cut) =   68.42 sec. (30022.25 ticks)

Solution pool: 2 solutions saved.

MIP - Deterministic time limit exceeded, integer feasible:  Objective =  5.0995156244e-05
Current MIP best bound =  1.5309176087e+04 (gap = 15309.2, 3e+10%)
Solution time =   68.45 sec.  Iterations = 106802  Nodes = 5963 (2309)
Deterministic time = 30022.56 ticks  (438.58 ticks/sec)

CPLEX> Incumbent solution written to file 'C:\Users\llavin\Desktop\test715\logs\tmpawvd0jo3.cplex.sol'.
CPLEX> Exporting results... 
